Minimize
	value: tt

Subject to
tt + 1000 s_1_1 > 0.0
tt - t_1_1 - 1001.017615 s_1_1  + 1.017615 s_1_7  > -998.976256
tt + 1000 s_2_1 > 0.0
tt - t_2_1 - 1000.831740 s_2_1  + 0.831740 s_2_7  > -992.585439
tt + 1000 s_1_2 > 0.0
tt - t_1_2 - 1001.017615 s_1_2  + 1.017615 s_1_8  > -998.869511
tt + 1000 s_2_2 > 0.0
tt - t_2_2 - 1000.831740 s_2_2  + 0.831740 s_2_8  > -991.867348
tt + 1000 s_1_3 > 0.0
tt - t_1_3 - 1001.017615 s_1_3  + 1.017615 s_1_8  > -998.440419
tt + 1000 s_2_3 > 0.0
tt - t_2_3 - 1000.831740 s_2_3  + 0.831740 s_2_8  > -987.505661
tt + 1000 s_1_4 > 0.0
tt - t_1_4 - 1002.035230 s_1_4  + 1.017615 s_1_8  + 1.017615 s_1_3  > -999.200700
tt + 1000 s_2_4 > 0.0
tt - t_2_4 - 1001.663480 s_2_4  + 0.831740 s_2_8  + 0.831740 s_2_3  > -992.819544
tt + 1000 s_1_5 > 0.0
tt - t_1_5 - 1002.035230 s_1_5  + 1.017615 s_1_7  + 1.017615 s_1_8  > -999.242844
tt + 1000 s_2_5 > 0.0
tt - t_2_5 - 1001.663480 s_2_5  + 0.831740 s_2_7  + 0.831740 s_2_8  > -993.918725
tt + 1000 s_1_6 > 0.0
tt - t_1_6 - 1005.088074 s_1_6  + 1.017615 s_1_1  + 1.017615 s_1_5  + 1.017615 s_1_4  + 1.017615 s_1_3  + 1.017615 s_1_2  > -999.889000
tt + 1000 s_2_6 > 0.0
tt - t_2_6 - 1004.158701 s_2_6  + 0.831740 s_2_1  + 0.831740 s_2_5  + 0.831740 s_2_4  + 0.831740 s_2_3  + 0.831740 s_2_2  > -996.469900
tt + 1000 s_1_7 > 0.0
tt - t_1_7 - 1000.000000 s_1_7  > -997.453800
tt + 1000 s_2_7 > 0.0
tt - t_2_7 - 1000.000000 s_2_7  > -986.154847
tt + 1000 s_1_8 > 0.0
tt - t_1_8 - 1000.000000 s_1_8  > -997.951600
tt + 1000 s_2_8 > 0.0
tt - t_2_8 - 1000.000000 s_2_8  > -993.783397
s_1_1 + s_2_1 = 1
s_1_2 + s_2_2 = 1
s_1_3 + s_2_3 = 1
s_1_4 + s_2_4 = 1
s_1_5 + s_2_5 = 1
s_1_6 + s_2_6 = 1
s_1_7 + s_2_7 = 1
s_1_8 + s_2_8 = 1
s_1_1 + s_1_2 + 1000 r_1_1_2 >= 2
- s_1_1 - s_1_2 - 1000 r_1_1_2 >= -1001
t_1_1 - t_1_2 - 1000.000000 u_1_1_2 - 1.017615 s_1_2  + 1.017615 s_1_8  + 2000.000000 r_1_1_2 > -998.869511
s_2_1 + s_2_2 + 1000 r_2_1_2 >= 2
- s_2_1 - s_2_2 - 1000 r_2_1_2 >= -1001
t_2_1 - t_2_2 - 1000.000000 u_2_1_2 - 0.831740 s_2_2  + 0.831740 s_2_8  + 2000.000000 r_2_1_2 > -991.867348
s_1_1 + s_1_3 + 1000 r_1_1_3 >= 2
- s_1_1 - s_1_3 - 1000 r_1_1_3 >= -1001
t_1_1 - t_1_3 - 1000.000000 u_1_1_3 - 1.017615 s_1_3  + 1.017615 s_1_8  + 2000.000000 r_1_1_3 > -998.440419
s_2_1 + s_2_3 + 1000 r_2_1_3 >= 2
- s_2_1 - s_2_3 - 1000 r_2_1_3 >= -1001
t_2_1 - t_2_3 - 1000.000000 u_2_1_3 - 0.831740 s_2_3  + 0.831740 s_2_8  + 2000.000000 r_2_1_3 > -987.505661
s_1_1 + s_1_4 + 1000 r_1_1_4 >= 2
- s_1_1 - s_1_4 - 1000 r_1_1_4 >= -1001
t_1_1 - t_1_4 - 1000.000000 u_1_1_4 - 2.035230 s_1_4  + 1.017615 s_1_8  + 1.017615 s_1_3  + 2000.000000 r_1_1_4 > -999.200700
s_2_1 + s_2_4 + 1000 r_2_1_4 >= 2
- s_2_1 - s_2_4 - 1000 r_2_1_4 >= -1001
t_2_1 - t_2_4 - 1000.000000 u_2_1_4 - 1.663480 s_2_4  + 0.831740 s_2_8  + 0.831740 s_2_3  + 2000.000000 r_2_1_4 > -992.819544
s_1_1 + s_1_5 + 1000 r_1_1_5 >= 2
- s_1_1 - s_1_5 - 1000 r_1_1_5 >= -1001
t_1_1 - t_1_5 - 1000.000000 u_1_1_5 - 2.035230 s_1_5  + 1.017615 s_1_7  + 1.017615 s_1_8  + 2000.000000 r_1_1_5 > -999.242844
s_2_1 + s_2_5 + 1000 r_2_1_5 >= 2
- s_2_1 - s_2_5 - 1000 r_2_1_5 >= -1001
t_2_1 - t_2_5 - 1000.000000 u_2_1_5 - 1.663480 s_2_5  + 0.831740 s_2_7  + 0.831740 s_2_8  + 2000.000000 r_2_1_5 > -993.918725
t_1_6 - t_1_1 - 1001.017615 s_1_1  + 1.017615 s_1_7  > -998.976256
t_1_6 - t_2_1 - 1000.831740 s_2_1  + 0.831740 s_2_7  > -992.585439
t_2_6 - t_1_1 - 1001.017615 s_1_1  + 1.017615 s_1_7  > -998.976256
t_2_6 - t_2_1 - 1000.831740 s_2_1  + 0.831740 s_2_7  > -992.585439
t_1_1 - t_1_7 - 1000.000000 s_1_7  > -997.453800
t_1_1 - t_2_7 - 1000.000000 s_2_7  > -986.154847
t_2_1 - t_1_7 - 1000.000000 s_1_7  > -997.453800
t_2_1 - t_2_7 - 1000.000000 s_2_7  > -986.154847
s_1_1 + s_1_8 + 1000 r_1_1_8 >= 2
- s_1_1 - s_1_8 - 1000 r_1_1_8 >= -1001
t_1_1 - t_1_8 - 1000.000000 u_1_1_8 - 0.000000 s_1_8  + 2000.000000 r_1_1_8 > -997.951600
s_2_1 + s_2_8 + 1000 r_2_1_8 >= 2
- s_2_1 - s_2_8 - 1000 r_2_1_8 >= -1001
t_2_1 - t_2_8 - 1000.000000 u_2_1_8 - 0.000000 s_2_8  + 2000.000000 r_2_1_8 > -993.783397
s_1_2 + s_1_1 + 1000 r_1_1_2 >= 2
- s_1_2 - s_1_1 - 1000 r_1_1_2 >= -1001
t_1_2 - t_1_1 + 1000.000000 u_1_1_2 - 1.017615 s_1_1  + 1.017615 s_1_7  + 2000.000000 r_1_1_2 > 1.023744
s_2_2 + s_2_1 + 1000 r_2_1_2 >= 2
- s_2_2 - s_2_1 - 1000 r_2_1_2 >= -1001
t_2_2 - t_2_1 + 1000.000000 u_2_1_2 - 0.831740 s_2_1  + 0.831740 s_2_7  + 2000.000000 r_2_1_2 > 7.414561
s_1_2 + s_1_3 + 1000 r_1_2_3 >= 2
- s_1_2 - s_1_3 - 1000 r_1_2_3 >= -1001
t_1_2 - t_1_3 - 1000.000000 u_1_2_3 - 1.017615 s_1_3  + 1.017615 s_1_8  + 2000.000000 r_1_2_3 > -998.440419
s_2_2 + s_2_3 + 1000 r_2_2_3 >= 2
- s_2_2 - s_2_3 - 1000 r_2_2_3 >= -1001
t_2_2 - t_2_3 - 1000.000000 u_2_2_3 - 0.831740 s_2_3  + 0.831740 s_2_8  + 2000.000000 r_2_2_3 > -987.505661
s_1_2 + s_1_4 + 1000 r_1_2_4 >= 2
- s_1_2 - s_1_4 - 1000 r_1_2_4 >= -1001
t_1_2 - t_1_4 - 1000.000000 u_1_2_4 - 2.035230 s_1_4  + 1.017615 s_1_8  + 1.017615 s_1_3  + 2000.000000 r_1_2_4 > -999.200700
s_2_2 + s_2_4 + 1000 r_2_2_4 >= 2
- s_2_2 - s_2_4 - 1000 r_2_2_4 >= -1001
t_2_2 - t_2_4 - 1000.000000 u_2_2_4 - 1.663480 s_2_4  + 0.831740 s_2_8  + 0.831740 s_2_3  + 2000.000000 r_2_2_4 > -992.819544
s_1_2 + s_1_5 + 1000 r_1_2_5 >= 2
- s_1_2 - s_1_5 - 1000 r_1_2_5 >= -1001
t_1_2 - t_1_5 - 1000.000000 u_1_2_5 - 2.035230 s_1_5  + 1.017615 s_1_7  + 1.017615 s_1_8  + 2000.000000 r_1_2_5 > -999.242844
s_2_2 + s_2_5 + 1000 r_2_2_5 >= 2
- s_2_2 - s_2_5 - 1000 r_2_2_5 >= -1001
t_2_2 - t_2_5 - 1000.000000 u_2_2_5 - 1.663480 s_2_5  + 0.831740 s_2_7  + 0.831740 s_2_8  + 2000.000000 r_2_2_5 > -993.918725
t_1_6 - t_1_2 - 1001.017615 s_1_2  + 1.017615 s_1_8  > -998.869511
t_1_6 - t_2_2 - 1000.831740 s_2_2  + 0.831740 s_2_8  > -991.867348
t_2_6 - t_1_2 - 1001.017615 s_1_2  + 1.017615 s_1_8  > -998.869511
t_2_6 - t_2_2 - 1000.831740 s_2_2  + 0.831740 s_2_8  > -991.867348
s_1_2 + s_1_7 + 1000 r_1_2_7 >= 2
- s_1_2 - s_1_7 - 1000 r_1_2_7 >= -1001
t_1_2 - t_1_7 - 1000.000000 u_1_2_7 - 0.000000 s_1_7  + 2000.000000 r_1_2_7 > -997.453800
s_2_2 + s_2_7 + 1000 r_2_2_7 >= 2
- s_2_2 - s_2_7 - 1000 r_2_2_7 >= -1001
t_2_2 - t_2_7 - 1000.000000 u_2_2_7 - 0.000000 s_2_7  + 2000.000000 r_2_2_7 > -986.154847
t_1_2 - t_1_8 - 1000.000000 s_1_8  > -997.951600
t_1_2 - t_2_8 - 1000.000000 s_2_8  > -993.783397
t_2_2 - t_1_8 - 1000.000000 s_1_8  > -997.951600
t_2_2 - t_2_8 - 1000.000000 s_2_8  > -993.783397
s_1_3 + s_1_1 + 1000 r_1_1_3 >= 2
- s_1_3 - s_1_1 - 1000 r_1_1_3 >= -1001
t_1_3 - t_1_1 + 1000.000000 u_1_1_3 - 1.017615 s_1_1  + 1.017615 s_1_7  + 2000.000000 r_1_1_3 > 1.023744
s_2_3 + s_2_1 + 1000 r_2_1_3 >= 2
- s_2_3 - s_2_1 - 1000 r_2_1_3 >= -1001
t_2_3 - t_2_1 + 1000.000000 u_2_1_3 - 0.831740 s_2_1  + 0.831740 s_2_7  + 2000.000000 r_2_1_3 > 7.414561
s_1_3 + s_1_2 + 1000 r_1_2_3 >= 2
- s_1_3 - s_1_2 - 1000 r_1_2_3 >= -1001
t_1_3 - t_1_2 + 1000.000000 u_1_2_3 - 1.017615 s_1_2  + 1.017615 s_1_8  + 2000.000000 r_1_2_3 > 1.130489
s_2_3 + s_2_2 + 1000 r_2_2_3 >= 2
- s_2_3 - s_2_2 - 1000 r_2_2_3 >= -1001
t_2_3 - t_2_2 + 1000.000000 u_2_2_3 - 0.831740 s_2_2  + 0.831740 s_2_8  + 2000.000000 r_2_2_3 > 8.132652
t_1_4 - t_1_3 - 1001.017615 s_1_3  + 1.017615 s_1_8  > -998.440419
t_1_4 - t_2_3 - 1000.831740 s_2_3  + 0.831740 s_2_8  > -987.505661
t_2_4 - t_1_3 - 1001.017615 s_1_3  + 1.017615 s_1_8  > -998.440419
t_2_4 - t_2_3 - 1000.831740 s_2_3  + 0.831740 s_2_8  > -987.505661
s_1_3 + s_1_5 + 1000 r_1_3_5 >= 2
- s_1_3 - s_1_5 - 1000 r_1_3_5 >= -1001
t_1_3 - t_1_5 - 1000.000000 u_1_3_5 - 2.035230 s_1_5  + 1.017615 s_1_7  + 1.017615 s_1_8  + 2000.000000 r_1_3_5 > -999.242844
s_2_3 + s_2_5 + 1000 r_2_3_5 >= 2
- s_2_3 - s_2_5 - 1000 r_2_3_5 >= -1001
t_2_3 - t_2_5 - 1000.000000 u_2_3_5 - 1.663480 s_2_5  + 0.831740 s_2_7  + 0.831740 s_2_8  + 2000.000000 r_2_3_5 > -993.918725
t_1_6 - t_1_3 - 1001.017615 s_1_3  + 1.017615 s_1_8  > -998.440419
t_1_6 - t_2_3 - 1000.831740 s_2_3  + 0.831740 s_2_8  > -987.505661
t_2_6 - t_1_3 - 1001.017615 s_1_3  + 1.017615 s_1_8  > -998.440419
t_2_6 - t_2_3 - 1000.831740 s_2_3  + 0.831740 s_2_8  > -987.505661
s_1_3 + s_1_7 + 1000 r_1_3_7 >= 2
- s_1_3 - s_1_7 - 1000 r_1_3_7 >= -1001
t_1_3 - t_1_7 - 1000.000000 u_1_3_7 - 0.000000 s_1_7  + 2000.000000 r_1_3_7 > -997.453800
s_2_3 + s_2_7 + 1000 r_2_3_7 >= 2
- s_2_3 - s_2_7 - 1000 r_2_3_7 >= -1001
t_2_3 - t_2_7 - 1000.000000 u_2_3_7 - 0.000000 s_2_7  + 2000.000000 r_2_3_7 > -986.154847
t_1_3 - t_1_8 - 1000.000000 s_1_8  > -997.951600
t_1_3 - t_2_8 - 1000.000000 s_2_8  > -993.783397
t_2_3 - t_1_8 - 1000.000000 s_1_8  > -997.951600
t_2_3 - t_2_8 - 1000.000000 s_2_8  > -993.783397
s_1_4 + s_1_1 + 1000 r_1_1_4 >= 2
- s_1_4 - s_1_1 - 1000 r_1_1_4 >= -1001
t_1_4 - t_1_1 + 1000.000000 u_1_1_4 - 1.017615 s_1_1  + 1.017615 s_1_7  + 2000.000000 r_1_1_4 > 1.023744
s_2_4 + s_2_1 + 1000 r_2_1_4 >= 2
- s_2_4 - s_2_1 - 1000 r_2_1_4 >= -1001
t_2_4 - t_2_1 + 1000.000000 u_2_1_4 - 0.831740 s_2_1  + 0.831740 s_2_7  + 2000.000000 r_2_1_4 > 7.414561
s_1_4 + s_1_2 + 1000 r_1_2_4 >= 2
- s_1_4 - s_1_2 - 1000 r_1_2_4 >= -1001
t_1_4 - t_1_2 + 1000.000000 u_1_2_4 - 1.017615 s_1_2  + 1.017615 s_1_8  + 2000.000000 r_1_2_4 > 1.130489
s_2_4 + s_2_2 + 1000 r_2_2_4 >= 2
- s_2_4 - s_2_2 - 1000 r_2_2_4 >= -1001
t_2_4 - t_2_2 + 1000.000000 u_2_2_4 - 0.831740 s_2_2  + 0.831740 s_2_8  + 2000.000000 r_2_2_4 > 8.132652
s_1_4 + s_1_5 + 1000 r_1_4_5 >= 2
- s_1_4 - s_1_5 - 1000 r_1_4_5 >= -1001
t_1_4 - t_1_5 - 1000.000000 u_1_4_5 - 2.035230 s_1_5  + 1.017615 s_1_7  + 1.017615 s_1_8  + 2000.000000 r_1_4_5 > -999.242844
s_2_4 + s_2_5 + 1000 r_2_4_5 >= 2
- s_2_4 - s_2_5 - 1000 r_2_4_5 >= -1001
t_2_4 - t_2_5 - 1000.000000 u_2_4_5 - 1.663480 s_2_5  + 0.831740 s_2_7  + 0.831740 s_2_8  + 2000.000000 r_2_4_5 > -993.918725
t_1_6 - t_1_4 - 1002.035230 s_1_4  + 1.017615 s_1_8  + 1.017615 s_1_3  > -999.200700
t_1_6 - t_2_4 - 1001.663480 s_2_4  + 0.831740 s_2_8  + 0.831740 s_2_3  > -992.819544
t_2_6 - t_1_4 - 1002.035230 s_1_4  + 1.017615 s_1_8  + 1.017615 s_1_3  > -999.200700
t_2_6 - t_2_4 - 1001.663480 s_2_4  + 0.831740 s_2_8  + 0.831740 s_2_3  > -992.819544
s_1_4 + s_1_7 + 1000 r_1_4_7 >= 2
- s_1_4 - s_1_7 - 1000 r_1_4_7 >= -1001
t_1_4 - t_1_7 - 1000.000000 u_1_4_7 - 0.000000 s_1_7  + 2000.000000 r_1_4_7 > -997.453800
s_2_4 + s_2_7 + 1000 r_2_4_7 >= 2
- s_2_4 - s_2_7 - 1000 r_2_4_7 >= -1001
t_2_4 - t_2_7 - 1000.000000 u_2_4_7 - 0.000000 s_2_7  + 2000.000000 r_2_4_7 > -986.154847
t_1_4 - t_1_8 - 1000.000000 s_1_8  > -997.951600
t_1_4 - t_2_8 - 1000.000000 s_2_8  > -993.783397
t_2_4 - t_1_8 - 1000.000000 s_1_8  > -997.951600
t_2_4 - t_2_8 - 1000.000000 s_2_8  > -993.783397
s_1_5 + s_1_1 + 1000 r_1_1_5 >= 2
- s_1_5 - s_1_1 - 1000 r_1_1_5 >= -1001
t_1_5 - t_1_1 + 1000.000000 u_1_1_5 - 1.017615 s_1_1  + 1.017615 s_1_7  + 2000.000000 r_1_1_5 > 1.023744
s_2_5 + s_2_1 + 1000 r_2_1_5 >= 2
- s_2_5 - s_2_1 - 1000 r_2_1_5 >= -1001
t_2_5 - t_2_1 + 1000.000000 u_2_1_5 - 0.831740 s_2_1  + 0.831740 s_2_7  + 2000.000000 r_2_1_5 > 7.414561
s_1_5 + s_1_2 + 1000 r_1_2_5 >= 2
- s_1_5 - s_1_2 - 1000 r_1_2_5 >= -1001
t_1_5 - t_1_2 + 1000.000000 u_1_2_5 - 1.017615 s_1_2  + 1.017615 s_1_8  + 2000.000000 r_1_2_5 > 1.130489
s_2_5 + s_2_2 + 1000 r_2_2_5 >= 2
- s_2_5 - s_2_2 - 1000 r_2_2_5 >= -1001
t_2_5 - t_2_2 + 1000.000000 u_2_2_5 - 0.831740 s_2_2  + 0.831740 s_2_8  + 2000.000000 r_2_2_5 > 8.132652
s_1_5 + s_1_3 + 1000 r_1_3_5 >= 2
- s_1_5 - s_1_3 - 1000 r_1_3_5 >= -1001
t_1_5 - t_1_3 + 1000.000000 u_1_3_5 - 1.017615 s_1_3  + 1.017615 s_1_8  + 2000.000000 r_1_3_5 > 1.559581
s_2_5 + s_2_3 + 1000 r_2_3_5 >= 2
- s_2_5 - s_2_3 - 1000 r_2_3_5 >= -1001
t_2_5 - t_2_3 + 1000.000000 u_2_3_5 - 0.831740 s_2_3  + 0.831740 s_2_8  + 2000.000000 r_2_3_5 > 12.494339
s_1_5 + s_1_4 + 1000 r_1_4_5 >= 2
- s_1_5 - s_1_4 - 1000 r_1_4_5 >= -1001
t_1_5 - t_1_4 + 1000.000000 u_1_4_5 - 2.035230 s_1_4  + 1.017615 s_1_8  + 1.017615 s_1_3  + 2000.000000 r_1_4_5 > 0.799300
s_2_5 + s_2_4 + 1000 r_2_4_5 >= 2
- s_2_5 - s_2_4 - 1000 r_2_4_5 >= -1001
t_2_5 - t_2_4 + 1000.000000 u_2_4_5 - 1.663480 s_2_4  + 0.831740 s_2_8  + 0.831740 s_2_3  + 2000.000000 r_2_4_5 > 7.180456
t_1_6 - t_1_5 - 1002.035230 s_1_5  + 1.017615 s_1_7  + 1.017615 s_1_8  > -999.242844
t_1_6 - t_2_5 - 1001.663480 s_2_5  + 0.831740 s_2_7  + 0.831740 s_2_8  > -993.918725
t_2_6 - t_1_5 - 1002.035230 s_1_5  + 1.017615 s_1_7  + 1.017615 s_1_8  > -999.242844
t_2_6 - t_2_5 - 1001.663480 s_2_5  + 0.831740 s_2_7  + 0.831740 s_2_8  > -993.918725
t_1_5 - t_1_7 - 1000.000000 s_1_7  > -997.453800
t_1_5 - t_2_7 - 1000.000000 s_2_7  > -986.154847
t_2_5 - t_1_7 - 1000.000000 s_1_7  > -997.453800
t_2_5 - t_2_7 - 1000.000000 s_2_7  > -986.154847
t_1_5 - t_1_8 - 1000.000000 s_1_8  > -997.951600
t_1_5 - t_2_8 - 1000.000000 s_2_8  > -993.783397
t_2_5 - t_1_8 - 1000.000000 s_1_8  > -997.951600
t_2_5 - t_2_8 - 1000.000000 s_2_8  > -993.783397
s_1_7 + s_1_2 + 1000 r_1_2_7 >= 2
- s_1_7 - s_1_2 - 1000 r_1_2_7 >= -1001
t_1_7 - t_1_2 + 1000.000000 u_1_2_7 - 1.017615 s_1_2  + 1.017615 s_1_8  + 2000.000000 r_1_2_7 > 1.130489
s_2_7 + s_2_2 + 1000 r_2_2_7 >= 2
- s_2_7 - s_2_2 - 1000 r_2_2_7 >= -1001
t_2_7 - t_2_2 + 1000.000000 u_2_2_7 - 0.831740 s_2_2  + 0.831740 s_2_8  + 2000.000000 r_2_2_7 > 8.132652
s_1_7 + s_1_3 + 1000 r_1_3_7 >= 2
- s_1_7 - s_1_3 - 1000 r_1_3_7 >= -1001
t_1_7 - t_1_3 + 1000.000000 u_1_3_7 - 1.017615 s_1_3  + 1.017615 s_1_8  + 2000.000000 r_1_3_7 > 1.559581
s_2_7 + s_2_3 + 1000 r_2_3_7 >= 2
- s_2_7 - s_2_3 - 1000 r_2_3_7 >= -1001
t_2_7 - t_2_3 + 1000.000000 u_2_3_7 - 0.831740 s_2_3  + 0.831740 s_2_8  + 2000.000000 r_2_3_7 > 12.494339
s_1_7 + s_1_4 + 1000 r_1_4_7 >= 2
- s_1_7 - s_1_4 - 1000 r_1_4_7 >= -1001
t_1_7 - t_1_4 + 1000.000000 u_1_4_7 - 2.035230 s_1_4  + 1.017615 s_1_8  + 1.017615 s_1_3  + 2000.000000 r_1_4_7 > 0.799300
s_2_7 + s_2_4 + 1000 r_2_4_7 >= 2
- s_2_7 - s_2_4 - 1000 r_2_4_7 >= -1001
t_2_7 - t_2_4 + 1000.000000 u_2_4_7 - 1.663480 s_2_4  + 0.831740 s_2_8  + 0.831740 s_2_3  + 2000.000000 r_2_4_7 > 7.180456
s_1_7 + s_1_8 + 1000 r_1_7_8 >= 2
- s_1_7 - s_1_8 - 1000 r_1_7_8 >= -1001
t_1_7 - t_1_8 - 1000.000000 u_1_7_8 - 0.000000 s_1_8  + 2000.000000 r_1_7_8 > -997.951600
s_2_7 + s_2_8 + 1000 r_2_7_8 >= 2
- s_2_7 - s_2_8 - 1000 r_2_7_8 >= -1001
t_2_7 - t_2_8 - 1000.000000 u_2_7_8 - 0.000000 s_2_8  + 2000.000000 r_2_7_8 > -993.783397
s_1_8 + s_1_1 + 1000 r_1_1_8 >= 2
- s_1_8 - s_1_1 - 1000 r_1_1_8 >= -1001
t_1_8 - t_1_1 + 1000.000000 u_1_1_8 - 1.017615 s_1_1  + 1.017615 s_1_7  + 2000.000000 r_1_1_8 > 1.023744
s_2_8 + s_2_1 + 1000 r_2_1_8 >= 2
- s_2_8 - s_2_1 - 1000 r_2_1_8 >= -1001
t_2_8 - t_2_1 + 1000.000000 u_2_1_8 - 0.831740 s_2_1  + 0.831740 s_2_7  + 2000.000000 r_2_1_8 > 7.414561
s_1_8 + s_1_7 + 1000 r_1_7_8 >= 2
- s_1_8 - s_1_7 - 1000 r_1_7_8 >= -1001
t_1_8 - t_1_7 + 1000.000000 u_1_7_8 - 0.000000 s_1_7  + 2000.000000 r_1_7_8 > 2.546200
s_2_8 + s_2_7 + 1000 r_2_7_8 >= 2
- s_2_8 - s_2_7 - 1000 r_2_7_8 >= -1001
t_2_8 - t_2_7 + 1000.000000 u_2_7_8 - 0.000000 s_2_7  + 2000.000000 r_2_7_8 > 13.845153
Binary
s_1_1
s_2_1
s_1_2
s_2_2
s_1_3
s_2_3
s_1_4
s_2_4
s_1_5
s_2_5
s_1_6
s_2_6
s_1_7
s_2_7
s_1_8
s_2_8
u_1_1_2
r_1_1_2
u_2_1_2
r_2_1_2
u_1_1_3
r_1_1_3
u_2_1_3
r_2_1_3
u_1_1_4
r_1_1_4
u_2_1_4
r_2_1_4
u_1_1_5
r_1_1_5
u_2_1_5
r_2_1_5
u_1_1_8
r_1_1_8
u_2_1_8
r_2_1_8
u_1_2_3
r_1_2_3
u_2_2_3
r_2_2_3
u_1_2_4
r_1_2_4
u_2_2_4
r_2_2_4
u_1_2_5
r_1_2_5
u_2_2_5
r_2_2_5
u_1_2_7
r_1_2_7
u_2_2_7
r_2_2_7
u_1_3_5
r_1_3_5
u_2_3_5
r_2_3_5
u_1_3_7
r_1_3_7
u_2_3_7
r_2_3_7
u_1_4_5
r_1_4_5
u_2_4_5
r_2_4_5
u_1_4_7
r_1_4_7
u_2_4_7
r_2_4_7
u_1_7_8
r_1_7_8
u_2_7_8
r_2_7_8

End
